NAME: template_#image1030.png
TYPE: TSP
DIMENSION: 75
EDGE_WEIGHT_TYPE: EUC_2D
NODE_COORD_SECTION
1 25.5 21.5
2 160.5 21.5
3 194.5 21.5
4 262.5 21.5
5 296.5 21.5
6 330.5 21.5
7 364.5 21.5
8 465.5 21.5
9 499.5 21.5
10 601.5 21.5
11 703.5 21.5
12 737.5 21.5
13 770.5 21.5
14 804.5 21.5
15 974.5 21.5
16 1008.5 21.5
17 24.5 55.5
18 58.5 55.5
19 160.5 55.5
20 261.5 55.5
21 295.5 55.5
22 703.5 55.5
23 736.5 55.5
24 872.5 55.5
25 1007.5 55.5
26 93.5 88.5
27 364.5 88.5
28 602.5 88.5
29 805.5 88.5
30 160.5 89.5
31 634.5 89.5
32 668.5 89.5
33 838.5 89.5
34 127.5 122.5
35 296.5 122.5
36 635.5 122.5
37 669.5 122.5
38 703.5 122.5
39 737.5 122.5
40 159.5 123.5
41 228.5 156.5
42 262.5 156.5
43 669.5 156.5
44 703.5 156.5
45 805.5 156.5
46 432.5 190.5
47 397.5 191.5
48 465.5 191.5
49 499.5 191.5
50 702.5 191.5
51 804.5 191.5
52 838.5 191.5
53 431.5 224.5
54 533.5 224.5
55 804.5 224.5
56 397.5 258.5
57 533.5 258.5
58 703.5 258.5
59 736.5 258.5
60 838.5 258.5
61 363.5 292.5
62 397.5 292.5
63 872.5 292.5
64 906.5 292.5
65 872.5 326.5
66 906.5 326.5
67 295.5 360.5
68 329.5 360.5
69 838.5 360.5
70 262.5 393.5
71 296.5 393.5
72 533.5 427.5
73 567.5 427.5
74 601.5 427.5
75 635.5 427.5
EOF
